
Log started (V12.1.0) Mon Feb 14 16:43:44 2011


Problem 'sanr400-5.lp' read.
Read time =    0.06 sec.
Tried aggregator 1 time.
Presolve time =    0.37 sec.
Clique table members: 4190.
MIP emphasis: balance optimality and feasibility.
MIP search method: dynamic search.
Parallel mode: deterministic, using up to 2 threads.
Root relaxation solution time =    7.20 sec.

        Nodes                                         Cuts/
   Node  Left     Objective  IInf  Best Integer     Best Node    ItCnt     Gap

*     0+    0                            0.0000                   2778     --- 
      0     0       41.6106   399        0.0000       41.6106     2778     --- 
*     0+    0                            8.0000       41.6106     2778  420.13%
      0     0       41.4338   400        8.0000      Cuts: 12     4125  417.92%
*     0+    0                            9.0000       41.4338     4125  360.38%
      0     0       41.2551   398        9.0000   Cliques: 14     5295  358.39%
      0     0       41.1975   399        9.0000    Cliques: 4     6006  357.75%
